certificates/rado_a6_c4_N23.cnf
c Rad2 upper bound instance: x1 + 6*x2 - x3 = 4, interval [1,23]
p cnf 23 96
1 3 0
-1 -3 0
1 2 9 0
-1 -2 -9 0
1 3 15 0
-1 -3 -15 0
1 4 21 0
-1 -4 -21 0
1 2 4 0
-1 -2 -4 0
2 10 0
-2 -10 0
2 3 16 0
-2 -3 -16 0
2 4 22 0
-2 -4 -22 0
1 3 5 0
-1 -3 -5 0
2 3 11 0
-2 -3 -11 0
3 17 0
-3 -17 0
3 4 23 0
-3 -4 -23 0
1 4 6 0
-1 -4 -6 0
2 4 12 0
-2 -4 -12 0
3 4 18 0
-3 -4 -18 0
1 5 7 0
-1 -5 -7 0
2 5 13 0
-2 -5 -13 0
3 5 19 0
-3 -5 -19 0
1 6 8 0
-1 -6 -8 0
2 6 14 0
-2 -6 -14 0
3 6 20 0
-3 -6 -20 0
1 7 9 0
-1 -7 -9 0
2 7 15 0
-2 -7 -15 0
3 7 21 0
-3 -7 -21 0
1 8 10 0
-1 -8 -10 0
2 8 16 0
-2 -8 -16 0
3 8 22 0
-3 -8 -22 0
1 9 11 0
-1 -9 -11 0
2 9 17 0
-2 -9 -17 0
3 9 23 0
-3 -9 -23 0
1 10 12 0
-1 -10 -12 0
2 10 18 0
-2 -10 -18 0
1 11 13 0
-1 -11 -13 0
2 11 19 0
-2 -11 -19 0
1 12 14 0
-1 -12 -14 0
2 12 20 0
-2 -12 -20 0
1 13 15 0
-1 -13 -15 0
2 13 21 0
-2 -13 -21 0
1 14 16 0
-1 -14 -16 0
2 14 22 0
-2 -14 -22 0
1 15 17 0
-1 -15 -17 0
2 15 23 0
-2 -15 -23 0
1 16 18 0
-1 -16 -18 0
1 17 19 0
-1 -17 -19 0
1 18 20 0
-1 -18 -20 0
1 19 21 0
-1 -19 -21 0
1 20 22 0
-1 -20 -22 0
1 21 23 0
-1 -21 -23 0
