certificates/rado_a6_c4_N23.drat
-21 -23 0
d -21 -1 -23 0
7 9 21 0
-3 -23 0
-23 0
21 0
3 0
-1 0
-17 0
-7 0
19 0
15 0
9 0
5 0
0
